"Fe90 Cr38"
1.0
       11.4799995422         0.0000000000         0.0000000000
        0.0000000000        11.4799995422         0.0000000000
        0.0000000000         0.0000000000        11.4799995422
   Fe   Cr
   90   38
Direct
     0.000000000         0.000000000         0.000000000
     0.125000000         0.125000000         0.125000000
     0.125000000         0.125000000         0.375000000
     0.000000000         0.000000000         0.500000000
     0.000000000         0.000000000         0.750000000
     0.125000000         0.125000000         0.875000000
     0.000000000         0.250000000         0.000000000
     0.125000000         0.375000000         0.375000000
     0.000000000         0.250000000         0.750000000
     0.125000000         0.375000000         0.875000000
     0.000000000         0.500000000         0.000000000
     0.125000000         0.625000000         0.375000000
     0.125000000         0.625000000         0.625000000
     0.000000000         0.500000000         0.750000000
     0.125000000         0.625000000         0.875000000
     0.000000000         0.750000000         0.000000000
     0.000000000         0.750000000         0.250000000
     0.000000000         0.750000000         0.500000000
     0.125000000         0.875000000         0.625000000
     0.000000000         0.750000000         0.750000000
     0.125000000         0.875000000         0.875000000
     0.375000000         0.125000000         0.125000000
     0.250000000         0.000000000         0.250000000
     0.375000000         0.125000000         0.375000000
     0.250000000         0.000000000         0.500000000
     0.250000000         0.000000000         0.750000000
     0.375000000         0.125000000         0.875000000
     0.375000000         0.375000000         0.125000000
     0.250000000         0.250000000         0.250000000
     0.250000000         0.250000000         0.500000000
     0.250000000         0.500000000         0.000000000
     0.375000000         0.625000000         0.125000000
     0.250000000         0.500000000         0.250000000
     0.375000000         0.625000000         0.375000000
     0.250000000         0.500000000         0.500000000
     0.250000000         0.500000000         0.750000000
     0.250000000         0.750000000         0.000000000
     0.375000000         0.875000000         0.125000000
     0.250000000         0.750000000         0.250000000
     0.375000000         0.875000000         0.625000000
     0.250000000         0.750000000         0.750000000
     0.375000000         0.875000000         0.875000000
     0.500000000         0.000000000         0.000000000
     0.625000000         0.125000000         0.125000000
     0.500000000         0.000000000         0.250000000
     0.625000000         0.125000000         0.375000000
     0.500000000         0.000000000         0.500000000
     0.625000000         0.125000000         0.625000000
     0.500000000         0.000000000         0.750000000
     0.625000000         0.125000000         0.875000000
     0.500000000         0.250000000         0.000000000
     0.500000000         0.250000000         0.250000000
     0.625000000         0.375000000         0.375000000
     0.500000000         0.250000000         0.750000000
     0.625000000         0.375000000         0.875000000
     0.500000000         0.500000000         0.000000000
     0.625000000         0.625000000         0.125000000
     0.500000000         0.500000000         0.250000000
     0.625000000         0.625000000         0.375000000
     0.500000000         0.500000000         0.500000000
     0.625000000         0.625000000         0.625000000
     0.625000000         0.625000000         0.875000000
     0.500000000         0.750000000         0.000000000
     0.625000000         0.875000000         0.125000000
     0.500000000         0.750000000         0.250000000
     0.625000000         0.875000000         0.375000000
     0.500000000         0.750000000         0.500000000
     0.875000000         0.125000000         0.125000000
     0.750000000         0.000000000         0.250000000
     0.875000000         0.125000000         0.375000000
     0.750000000         0.000000000         0.500000000
     0.875000000         0.125000000         0.625000000
     0.750000000         0.000000000         0.750000000
     0.750000000         0.250000000         0.000000000
     0.750000000         0.250000000         0.250000000
     0.875000000         0.375000000         0.375000000
     0.750000000         0.250000000         0.500000000
     0.750000000         0.250000000         0.750000000
     0.875000000         0.375000000         0.875000000
     0.750000000         0.500000000         0.000000000
     0.875000000         0.625000000         0.125000000
     0.875000000         0.625000000         0.375000000
     0.750000000         0.500000000         0.750000000
     0.875000000         0.625000000         0.875000000
     0.875000000         0.875000000         0.125000000
     0.875000000         0.875000000         0.375000000
     0.750000000         0.750000000         0.500000000
     0.875000000         0.875000000         0.625000000
     0.750000000         0.750000000         0.750000000
     0.875000000         0.875000000         0.875000000
     0.000000000         0.000000000         0.250000000
     0.125000000         0.125000000         0.625000000
     0.125000000         0.375000000         0.125000000
     0.000000000         0.250000000         0.250000000
     0.000000000         0.250000000         0.500000000
     0.125000000         0.375000000         0.625000000
     0.125000000         0.625000000         0.125000000
     0.000000000         0.500000000         0.250000000
     0.000000000         0.500000000         0.500000000
     0.125000000         0.875000000         0.125000000
     0.125000000         0.875000000         0.375000000
     0.250000000         0.000000000         0.000000000
     0.375000000         0.125000000         0.625000000
     0.250000000         0.250000000         0.000000000
     0.375000000         0.375000000         0.375000000
     0.375000000         0.375000000         0.625000000
     0.250000000         0.250000000         0.750000000
     0.375000000         0.375000000         0.875000000
     0.375000000         0.625000000         0.625000000
     0.375000000         0.625000000         0.875000000
     0.375000000         0.875000000         0.375000000
     0.250000000         0.750000000         0.500000000
     0.625000000         0.375000000         0.125000000
     0.500000000         0.250000000         0.500000000
     0.625000000         0.375000000         0.625000000
     0.500000000         0.500000000         0.750000000
     0.625000000         0.875000000         0.625000000
     0.500000000         0.750000000         0.750000000
     0.625000000         0.875000000         0.875000000
     0.750000000         0.000000000         0.000000000
     0.875000000         0.125000000         0.875000000
     0.875000000         0.375000000         0.125000000
     0.875000000         0.375000000         0.625000000
     0.750000000         0.500000000         0.250000000
     0.750000000         0.500000000         0.500000000
     0.875000000         0.625000000         0.625000000
     0.750000000         0.750000000         0.000000000
     0.750000000         0.750000000         0.250000000
